Maximize
	- 4 x1 + 4 x2 + 6 x5 
Maximize
	+ 1 x1 + 3 x2 - 2 x5 
Maximize
	+ 6 x1 - 2 x2 + 2 x3 + 3 x4 + 5 x5 
Subject To
	+ 1 x1 + 5 x3 + 4 x4 + 3 x5 <= 10
	+ 4 x1 - 4 x4 + 2 x5 <= 6
	+ 4 x1 + 5 x2 - 4 x4 + 3 x5 <= 7
	+ 5 x2 - 4 x4 - 1 x5 <= 7
	+ 1 x1 + 6 x3 + 1 x4 + 1 x5 <= 4
Bounds
	0 <= x1 <= 4
	0 <= x2 <= 4
	0 <= x3 <= 4
	0 <= x4 <= 4
	0 <= x5 <= 4
Integers
	x1 x2 x3 x4 x5 
End